%mem=92GB
%nprocshared=28
%rwf=ca2+.rwf
#p td(50-50,nstates=20) IOp(3/33=1) pop=full nosymm pbe1pbe/gen int=dkh IOp(8/10=90) ExtraLinks(L319)

Ca2+ ano-rcc-vdz

2 1
 Ca(ZEff=20.0) 0.0 0.0 0.0

Ca     0
S    20   1.00
6809719.36                   0.00005418
 829347.437                  0.00019459
 162290.662                  0.00059564
  41026.8198                 0.00171014
  12263.7623                 0.00488646
   4131.35161                0.01409478
   1523.09560                0.03964079
    602.564047               0.10186253
    252.124225               0.22001700
    110.346869               0.35031734
     49.9958150              0.31595287
     22.9719819              0.10252990
      9.95680985             0.00467469
      4.57299757             0.00100953
      2.05419310            -0.00038009
      0.88535650             0.00009481
      0.37372268            -0.00009970
      0.06601407             0.00010041
      0.02635672             0.00007260
      0.01054268             0.00000616
S    20   1.00
6809719.36                  -0.00001587
 829347.437                 -0.00005701
 162290.662                 -0.00017473
  41026.8198                -0.00050229
  12263.7623                -0.00144260
   4131.35161               -0.00418635
   1523.09560               -0.01202178
    602.564047              -0.03207407
    252.124225              -0.07625856
    110.346869              -0.14653945
     49.9958150             -0.19228772
     22.9719819             -0.02722418
      9.95680985             0.44262959
      4.57299757             0.56696223
      2.05419310             0.13438940
      0.88535650             0.00109226
      0.37372268             0.00133903
      0.06601407             0.00104252
      0.02635672             0.00122259
      0.01054268            -0.00002047
S    20   1.00
6809719.36                   0.00000546
 829347.437                  0.00001961
 162290.662                  0.00006014
  41026.8198                 0.00017283
  12263.7623                 0.00049701
   4131.35161                0.00144141
   1523.09560                0.00415569
    602.564047               0.01110596
    252.124225               0.02676025
    110.346869               0.05230666
     49.9958150              0.07224082
     22.9719819              0.00982900
      9.95680985            -0.21136471
      4.57299757            -0.44855891
      2.05419310            -0.04590883
      0.88535650             0.71765433
      0.37372268             0.48903077
      0.06601407             0.02497701
      0.02635672            -0.00048584
      0.01054268             0.00198045
S    20   1.00
6809719.36                  -0.00000140
 829347.437                 -0.00000504
 162290.662                 -0.00001546
  41026.8198                -0.00004438
  12263.7623                -0.00012788
   4131.35161               -0.00036987
   1523.09560               -0.00107016
    602.564047              -0.00284797
    252.124225              -0.00690228
    110.346869              -0.01341015
     49.9958150             -0.01881975
     22.9719819             -0.00225524
      9.95680985             0.05574843
      4.57299757             0.13035605
      2.05419310             0.00499616
      0.88535650            -0.24643484
      0.37372268            -0.35616581
      0.06601407             0.75381770
      0.02635672             0.42781919
      0.01054268            -0.00685962
S    20   1.00
6809719.36                   0.00000161
 829347.437                  0.00000580
 162290.662                  0.00001772
  41026.8198                 0.00005133
  12263.7623                 0.00014554
   4131.35161                0.00043251
   1523.09560                0.00121031
    602.564047               0.00339449
    252.124225               0.00783103
    110.346869               0.01686787
     49.9958150              0.02107452
     22.9719819              0.00675605
      9.95680985            -0.07834554
      4.57299757            -0.13583512
      2.05419310            -0.07148181
      0.88535650             0.56148895
      0.37372268             0.08231157
      0.06601407            -2.08268048
      0.02635672             1.93798328
      0.01054268             0.02484691
P    16   1.00
  21599.8143                 0.00003889
   3884.20155                0.00026395
   1096.96697                0.00147365
    385.187516               0.00679959
    153.934262               0.02549151
     66.9982541              0.07733775
     30.9708648              0.18169209
     14.8465963              0.31208695
      7.28779623             0.35515136
      3.62364204             0.20311430
      1.73391125             0.03724650
      0.81737794             0.00047360
      0.37811791             0.00049619
      0.15762725            -0.00017935
      0.06305090             0.00006191
      0.02522036            -0.00001592
P    16   1.00
  21599.8143                -0.00001269
   3884.20155               -0.00008602
   1096.96697               -0.00048251
    385.187516              -0.00222855
    153.934262              -0.00846279
     66.9982541             -0.02610214
     30.9708648             -0.06357162
     14.8465963             -0.11259824
      7.28779623            -0.13900506
      3.62364204            -0.03188918
      1.73391125             0.26166228
      0.81737794             0.47844015
      0.37811791             0.34455883
      0.15762725             0.05995371
      0.06305090            -0.00194113
      0.02522036             0.00104681
P    16   1.00
  21599.8143                -0.00001408
   3884.20155               -0.00009511
   1096.96697               -0.00053666
    385.187516              -0.00247111
    153.934262              -0.00948622
     66.9982541             -0.02952171
     30.9708648             -0.07463749
     14.8465963             -0.12621865
      7.28779623            -0.13901822
      3.62364204            -0.01203163
      1.73391125             0.68129550
      0.81737794             0.29990651
      0.37811791            -0.60722153
      0.15762725            -0.55224751
      0.06305090             0.02202558
      0.02522036             0.58807794
P    16   1.00
  21599.8143                 0.00000307
   3884.20155                0.00002096
   1096.96697                0.00011642
    385.187516               0.00054393
    153.934262               0.00204350
     66.9982541              0.00639712
     30.9708648              0.01541409
     14.8465963              0.02790305
      7.28779623             0.03328359
      3.62364204             0.00814677
      1.73391125            -0.08186756
      0.81737794            -0.12887124
      0.37811791            -0.14496404
      0.15762725             0.13595914
      0.06305090             0.64051403
      0.02522036             0.36146036
****









